70 125
7 7
2 7
2 4
4 1
7 5
5 9
3 10
2 8
3 9
7 9
7 2
9 2
1 5
10 9
4 4
7 8
2 10
9 6
9 1
8 7
3 3
9 7
8 3
8 2
9 9
9 9
5 8
1 7
10 8
5 3
5 7
8 6
8 2
4 1
3 9
3 8
7 7
5 6
1 5
2 2
2 1
3 2
7 7
3 10
3 7
5 1
10 4
7 10
2 1
4 4
6 1
9 8
1 3
5 5
2 6
1 8
4 3
6 7
4 2
3 5
4 1
1 3
10 1
9 6
1 8
8 2
8 9
8 7
3 9
8 1